\ This file has been generated by DOcplex
\ ENCODING=ISO-8859-1
\Problem name: random_problem.lp

Minimize
 obj: 6 x0 + 2 x1 - 3 x2 + 8 x3 - 7 x4 - 8 x5 + 10 x6 - 4 x7 + 7 x8 - 2 x9 + x10
      - 4 x11 + 7 x12 + 6 x14 - 2 x15 + x16 - 6 x17 - 2 x18 + 9 x19 + 4 x20
      - 4 x21 + [ 14 x0*x1 + 4 x0*x7 - 2 x0*x9 + 4 x0*x14 + 10 x0*x18 + 18 x1*x3
      + 16 x1*x5 - 18 x1*x6 - 20 x1*x8 - 18 x2*x5 + 6 x2*x7 - 18 x2*x14
      + 18 x2*x15 - 2 x2*x17 - 16 x3*x14 + 10 x3*x17 - 20 x3*x19 + 20 x3*x20
      - 12 x4*x5 - 14 x4*x9 + 4 x4*x11 + 8 x4*x13 + 8 x4*x15 + 14 x5*x6
      + 8 x5*x10 - 4 x6*x11 - 8 x6*x12 - 20 x6*x13 + 10 x7*x12 + 12 x7*x16
      - 2 x7*x21 - 12 x8*x9 + 16 x8*x10 - 20 x8*x15 - 2 x8*x19 - 10 x9*x10
      - 2 x9*x19 + 16 x10*x13 + 6 x10*x18 - 14 x11*x16 + 18 x11*x17 - 12 x11*x21
      - 20 x12*x13 + 8 x12*x20 - 14 x12*x21 - 12 x13*x20 - 20 x14*x16
      + 16 x14*x20 + 14 x15*x17 + 20 x15*x19 - 14 x16*x20 - 2 x16*x21
      + 6 x17*x21 + 14 x18*x19 ]/2
Subject To
 c0: - x8 + x13 + 2 x15 - 2 x18 + 2 x21 = -1
 c1: x1 - x5 - 2 x13 - x15 + x18 = -2
 c2: - 2 x0 + x2 - 2 x8 - x9 + 2 x20 = -2
 c3: - 2 x0 + 2 x2 + x4 - x14 + 2 x19 = -2

Bounds
 0 <= x0 <= 1
 0 <= x1 <= 1
 0 <= x2 <= 1
 0 <= x3 <= 1
 0 <= x4 <= 1
 0 <= x5 <= 1
 0 <= x6 <= 1
 0 <= x7 <= 1
 0 <= x8 <= 1
 0 <= x9 <= 1
 0 <= x10 <= 1
 0 <= x11 <= 1
 0 <= x12 <= 1
 0 <= x13 <= 1
 0 <= x14 <= 1
 0 <= x15 <= 1
 0 <= x16 <= 1
 0 <= x17 <= 1
 0 <= x18 <= 1
 0 <= x19 <= 1
 0 <= x20 <= 1
 0 <= x21 <= 1

Binaries
 x0 x1 x2 x3 x4 x5 x6 x7 x8 x9 x10 x11 x12 x13 x14 x15 x16 x17 x18 x19 x20 x21
End
